Features/ForMiniZinc/benchmark_puzzles/benchmarks9x9/90/puzzle20.dzn
S = 9;
start = [|0,0,0,0,0,23,0,72,0,0,0,0,0,11,0,0,0,0,49,0,0,0,0,0,0,0,0,0,0,0,0,25,0,0,15,0,0,0,0,0,0,0,0,0,0,0,0,0,0,0,0,0,0,0,0,0,0,0,0,0,26,0,0,0,0,0,7,0,0,0,0,0,0,37,0,0,9,0,0,0,0|
0,0,0,0,0,0,0,0,0,18,0,0,59,73,0,48,0,0,0,0,0,54,29,0,0,9,0,0,0,12,0,0,0,0,0,0,0,0,0,5,0,0,0,0,0,0,0,0,0,0,0,0,0,0,0,0,0,0,0,0,0,0,0,65,0,0,0,17,0,0,21,0,0,0,0,0,0,44,0,0,0|
0,0,0,42,75,0,0,0,0,0,0,0,0,0,0,0,0,0,0,0,48,0,73,0,0,0,30,0,0,0,0,0,6,0,0,0,0,12,0,0,0,0,0,0,0,0,77,0,80,0,0,24,0,0,0,0,0,0,0,0,0,0,0,0,0,46,0,64,58,0,0,0,0,0,1,0,0,0,0,0,0|
0,0,0,0,0,0,0,0,0,0,71,0,0,0,0,0,0,0,0,0,0,0,0,0,0,0,0,0,0,72,0,0,0,0,0,0,21,0,81,0,0,0,0,0,0,28,0,0,0,0,0,56,0,0,0,1,0,0,0,0,0,17,0,0,0,0,0,0,0,0,67,0,0,0,0,0,0,0,0,0,0|
0,0,0,21,0,0,0,0,0,0,0,0,0,0,0,0,0,0,0,0,0,0,0,0,0,0,0,0,0,0,0,0,0,0,0,0,0,0,0,0,0,0,0,0,59,0,0,13,0,0,0,0,0,0,0,0,0,0,0,0,0,0,0,0,0,0,0,0,0,0,0,0,0,0,0,55,0,0,22,0,0|
0,0,0,0,0,0,0,60,0,75,2,0,0,0,0,61,0,0,0,0,0,0,0,0,0,0,0,0,0,35,0,0,11,0,0,0,0,0,0,0,0,0,0,0,0,0,0,0,0,0,0,0,0,0,0,0,0,0,0,0,0,0,80,0,0,0,0,0,0,0,0,0,0,0,0,0,0,0,0,0,0|
0,0,0,0,0,0,0,25,0,0,0,0,0,0,0,0,3,0,0,0,58,0,0,0,0,0,0,0,0,0,0,38,0,0,8,0,0,0,0,0,0,0,0,68,0,0,0,0,0,0,0,0,0,0,0,0,0,0,0,0,0,0,0,0,0,0,0,0,0,0,0,0,0,0,0,71,0,0,0,0,0|
0,0,0,0,0,0,0,0,0,0,8,0,0,0,0,0,0,0,0,71,0,67,0,0,0,0,0,0,0,0,0,0,0,76,0,0,11,0,0,0,23,0,0,0,0,0,0,0,0,0,0,0,0,0,0,0,0,0,0,0,0,0,0,0,0,0,0,0,0,0,0,0,0,0,0,0,0,42,61,0,0|
0,0,0,0,0,0,0,0,0,0,0,0,0,0,0,0,0,0,0,0,0,0,0,0,0,0,0,0,0,0,0,0,0,0,0,0,0,0,0,0,29,0,0,0,0,49,0,0,0,0,0,0,0,0,0,0,0,0,0,0,57,48,0,0,0,0,0,0,0,0,0,0,0,0,0,0,0,0,0,0,0|
0,0,0,0,0,76,0,0,0,0,0,0,0,0,0,0,0,0,0,0,0,0,0,0,0,0,0,0,0,0,0,0,65,0,0,0,0,0,0,0,0,0,0,0,0,0,0,38,0,0,0,45,0,0,11,0,0,0,0,34,0,14,0,0,0,0,0,0,0,0,0,62,0,0,0,0,0,0,42,0,0|
0,0,0,0,0,0,0,0,0,0,0,0,53,0,0,0,0,0,0,0,0,0,0,0,0,0,0,2,0,0,0,0,0,0,0,0,0,0,0,0,0,60,0,0,0,8,0,0,0,0,0,0,0,26,0,0,0,0,0,74,0,0,0,0,0,81,0,0,0,0,56,0,0,0,0,69,0,6,0,50,0|
9,0,0,0,34,0,0,0,0,0,0,0,0,0,0,0,22,33,13,0,0,0,0,0,68,0,37,0,62,19,0,39,0,0,0,0,0,0,0,0,0,0,0,0,54,0,0,63,0,0,0,0,0,0,0,76,0,0,0,0,0,0,0,53,71,0,0,0,0,0,0,0,0,0,0,0,0,0,0,72,0|
0,0,0,0,0,0,0,0,0,0,0,0,0,0,0,0,0,0,0,0,0,0,0,0,0,0,0,49,0,0,0,0,0,0,0,0,0,0,0,0,0,1,0,0,0,0,0,0,0,0,0,0,24,0,0,0,0,0,0,0,0,0,0,0,0,35,0,0,0,9,0,0,54,0,0,0,0,0,0,0,0|
0,0,0,0,0,0,79,0,0,0,0,71,69,0,0,54,0,50,40,0,0,0,0,0,0,0,0,31,0,6,0,15,0,0,0,0,0,0,18,35,0,0,73,0,0,0,0,0,19,0,0,0,0,0,0,0,0,0,0,0,0,0,0,0,0,0,0,0,0,0,0,0,0,0,0,0,0,0,0,0,0|
0,0,0,0,0,0,0,52,0,0,0,75,0,0,0,0,0,0,0,0,0,0,0,0,0,0,0,0,0,0,0,0,0,0,0,0,0,79,0,0,0,0,0,0,0,0,0,0,0,0,9,0,0,0,0,0,0,12,0,0,0,0,0,0,0,0,0,0,0,0,0,0,0,15,0,0,0,0,0,0,34|
0,0,0,0,81,0,0,0,0,0,0,0,32,0,0,0,0,0,0,0,0,49,0,0,0,0,0,0,0,0,0,0,0,0,0,0,0,0,0,0,0,0,0,0,0,0,0,0,40,0,0,0,0,0,0,0,0,0,67,10,0,0,0,0,0,0,0,0,0,0,0,0,0,0,63,38,0,0,0,0,0|
0,0,0,0,0,0,0,51,0,0,0,0,0,0,0,0,0,0,0,0,0,0,41,1,0,24,0,0,0,0,0,20,0,0,0,10,0,0,47,0,0,0,0,0,0,0,0,0,34,0,0,0,0,0,0,0,29,0,0,0,0,32,0,0,0,50,0,73,0,0,0,54,0,0,0,0,0,0,0,0,0|
0,0,0,0,0,0,0,0,0,0,0,0,0,0,0,0,0,0,0,0,0,0,0,0,0,0,0,0,0,0,0,54,0,0,0,0,0,0,36,0,0,0,0,0,0,0,69,0,0,0,0,0,0,0,0,0,0,0,0,0,55,0,0,0,0,0,0,0,0,0,18,0,0,0,0,0,0,0,0,0,0|
0,0,71,0,0,24,0,0,0,0,0,0,34,0,0,0,0,0,11,0,0,0,58,0,0,0,0,0,0,0,0,60,0,0,0,0,0,43,0,0,0,0,0,0,40,0,0,0,0,0,27,0,0,70,0,0,0,0,0,0,0,0,0,0,0,0,0,0,0,0,0,67,0,0,0,0,0,0,0,0,1|
0,0,0,0,0,0,0,0,0,0,0,0,0,0,0,0,0,0,0,3,0,0,0,0,10,0,0,0,0,0,0,0,0,0,0,0,0,0,0,0,0,0,0,0,0,0,0,0,0,0,0,26,0,0,0,0,0,32,0,0,0,0,0,0,0,0,0,0,0,0,0,0,0,0,0,51,0,0,0,0,0|
0,0,0,0,0,0,0,0,0,0,0,0,0,0,0,0,0,0,0,0,0,0,0,0,25,0,0,0,0,0,50,0,0,0,0,0,0,48,0,0,0,70,66,0,0,0,0,0,0,0,0,0,0,0,0,0,0,0,0,0,81,0,0,76,0,0,0,0,0,0,0,0,0,0,0,0,0,0,0,0,0|
0,0,16,0,0,0,0,0,0,0,0,0,0,0,0,0,0,73,0,60,0,0,0,18,0,0,0,0,69,0,0,0,0,0,0,0,56,0,0,0,0,0,0,13,0,0,0,0,0,0,0,0,0,0,0,0,28,0,0,43,0,0,0,0,0,11,0,58,0,0,0,0,30,0,0,0,38,0,0,0,0|
0,0,0,0,0,0,0,0,0,0,0,0,0,0,0,0,0,0,0,0,0,0,0,0,0,0,0,0,0,0,0,52,0,0,0,0,0,0,0,0,18,0,31,0,0,0,0,0,0,0,0,0,0,0,0,0,0,51,0,0,0,0,0,0,0,0,70,0,0,0,0,0,0,0,0,0,76,0,0,0,0|
0,0,0,0,64,10,0,44,0,71,4,28,0,0,0,43,0,0,0,0,0,0,0,0,0,0,0,0,0,0,3,0,0,0,0,0,0,0,0,0,0,0,0,0,0,0,0,0,0,0,0,0,0,0,0,0,0,0,0,0,66,0,0,0,0,0,0,0,0,0,23,0,0,0,0,0,74,0,0,0,70|
0,0,0,0,0,0,0,0,0,0,0,0,0,0,0,0,0,3,0,0,43,0,0,0,0,0,19,0,0,0,0,0,0,0,0,0,0,0,0,21,0,0,0,0,0,0,0,0,0,0,0,0,0,0,0,0,0,0,0,0,0,39,0,0,0,0,0,0,0,0,53,0,0,0,69,0,56,0,60,0,0|
0,0,81,0,0,0,0,0,0,0,0,0,0,0,0,0,0,0,0,0,0,0,0,0,0,52,0,0,0,0,0,0,47,0,0,0,0,0,0,0,57,0,0,0,0,0,46,0,4,0,0,0,0,32,54,0,0,0,0,0,0,10,0,0,0,31,0,0,0,0,0,0,0,0,35,0,0,0,65,0,0|
0,0,0,0,0,0,0,0,0,0,48,0,0,0,0,0,0,0,0,36,53,0,0,0,0,0,0,0,0,0,0,0,63,0,0,0,67,0,0,0,0,3,0,0,0,0,0,0,0,0,0,0,0,0,0,0,0,0,0,0,0,0,0,0,0,0,0,0,0,0,0,0,0,0,0,0,57,0,0,0,0|
51,0,0,75,0,0,0,0,0,0,0,0,0,0,0,0,0,0,0,0,0,0,81,36,0,0,71,0,0,0,0,0,0,0,0,0,79,0,0,0,53,0,0,0,0,74,62,0,0,0,0,0,0,0,0,0,0,37,0,0,0,0,0,0,0,0,0,0,0,68,0,0,0,0,0,0,0,0,0,0,0|
0,0,0,0,0,0,0,0,0,0,0,0,0,0,0,0,0,0,62,0,0,17,0,0,0,48,0,0,0,0,0,0,0,0,0,0,0,0,0,0,0,0,0,0,0,0,0,0,0,0,0,0,0,0,0,0,0,0,0,0,0,0,0,0,0,0,0,0,0,0,0,0,32,0,0,0,0,0,0,0,0|
0,0,0,0,0,0,0,0,0,0,0,0,0,0,0,0,0,0,0,72,0,0,0,0,0,75,34,0,0,0,0,0,0,0,0,0,0,0,0,25,0,0,0,0,0,0,61,0,0,0,0,0,0,0,12,0,0,35,68,0,0,0,0,0,0,0,0,0,0,0,0,0,0,0,0,0,0,0,70,0,0|
0,0,0,0,0,0,0,0,0,0,0,0,0,0,0,0,0,34,0,0,60,69,0,0,0,0,0,0,0,0,0,0,0,0,0,0,0,0,0,0,0,0,0,0,0,0,0,0,0,0,0,0,0,0,0,0,0,0,0,0,0,0,0,0,0,0,0,0,0,0,0,0,0,0,0,0,0,0,0,56,0|
0,0,0,0,0,0,0,0,0,2,0,0,0,0,60,0,30,0,0,0,0,0,0,0,18,0,32,0,0,0,0,0,0,0,9,0,0,0,0,0,28,0,0,0,0,0,0,0,0,0,0,0,0,0,0,0,0,0,0,0,0,29,0,0,0,0,0,54,0,0,0,0,34,0,0,0,12,0,0,0,0|
0,0,21,0,0,0,0,0,0,0,0,0,0,0,38,0,0,52,0,0,0,0,0,0,0,0,0,0,0,0,18,0,0,0,0,0,64,72,0,0,0,0,0,0,4,0,0,0,0,0,0,0,0,0,0,0,0,0,0,0,0,0,0,0,0,0,0,61,0,0,0,0,0,0,0,0,0,19,0,0,58|
0,0,0,0,0,0,0,0,0,0,0,0,0,0,0,0,0,0,0,0,0,0,0,0,0,11,0,0,0,0,0,0,58,0,0,0,0,0,0,0,0,0,0,0,0,0,0,0,0,0,0,0,0,0,0,0,0,0,0,0,70,0,0,48,0,30,0,0,0,0,0,0,8,0,0,0,0,0,0,0,0|
0,0,10,0,0,0,0,0,0,0,0,0,0,0,0,0,0,0,0,0,0,0,78,0,0,0,0,0,0,0,76,0,0,62,0,0,0,0,0,0,0,0,0,0,0,36,0,0,0,0,0,0,0,0,0,47,0,0,0,0,0,3,0,0,0,0,0,0,0,0,25,0,0,0,16,59,0,0,54,35,0|
18,0,0,61,0,0,0,32,0,0,0,0,0,0,0,0,0,0,0,0,0,0,0,0,0,0,0,0,0,0,0,0,0,0,0,0,0,24,0,0,0,0,0,78,0,27,0,0,0,0,0,48,0,0,0,0,0,0,0,0,0,0,0,0,31,0,0,0,0,0,0,0,0,0,0,50,0,0,0,0,0|
0,0,0,0,0,0,0,0,0,0,0,0,0,0,0,0,0,0,0,0,0,0,23,0,0,0,0,22,0,0,0,0,0,0,0,18,0,0,0,0,0,0,0,0,0,0,0,0,0,0,0,0,0,0,0,0,34,0,0,0,0,0,0,55,0,0,11,0,4,0,0,53,0,0,0,62,0,0,35,0,0|
0,0,0,0,0,0,0,0,0,0,0,0,22,0,0,0,0,0,0,0,0,0,0,0,0,0,0,0,0,0,0,0,0,0,0,0,0,0,0,0,0,81,0,72,0,0,0,0,0,0,12,0,0,0,0,0,0,0,0,0,0,0,0,0,0,0,0,26,0,0,0,0,41,0,0,0,0,0,0,0,0|
0,0,0,0,63,0,0,0,0,0,21,0,0,3,17,0,0,81,0,0,0,0,0,0,0,0,0,25,79,0,15,0,0,0,0,0,0,0,0,0,0,0,0,0,0,0,11,0,0,0,41,0,0,0,0,0,0,0,0,0,0,0,0,0,69,0,0,0,0,64,0,0,0,0,0,0,0,0,0,0,0|
0,0,76,0,0,0,0,29,0,0,0,0,0,0,0,0,0,43,0,12,0,0,0,0,0,0,17,0,0,0,0,0,0,0,0,80,0,0,66,26,0,0,0,0,0,0,0,0,0,0,0,0,7,0,0,0,0,0,0,0,0,0,70,0,22,16,0,0,0,0,0,0,0,0,0,0,0,0,0,0,0|
0,0,0,0,0,0,0,0,0,0,0,0,0,25,0,0,0,61,0,0,0,0,0,0,0,0,0,0,0,0,73,0,0,0,0,0,0,0,0,0,4,0,0,0,0,0,0,0,0,0,56,0,6,0,0,0,0,0,0,0,37,0,0,0,0,79,0,0,0,0,0,0,0,0,0,0,0,49,18,0,0|
0,0,0,0,0,0,0,0,0,0,0,0,0,0,0,0,0,0,0,0,0,0,0,0,0,0,0,0,0,0,0,0,0,0,0,0,0,0,32,0,0,0,0,0,0,0,0,0,0,0,0,0,0,0,0,0,52,22,0,0,0,0,0,0,0,0,0,0,47,0,0,0,0,0,12,28,0,0,0,0,0|
0,0,1,0,2,0,0,0,0,65,0,0,0,0,0,0,0,0,0,80,0,0,0,0,0,0,0,0,0,0,0,0,0,0,0,0,0,0,0,0,0,0,50,0,0,0,0,0,0,0,0,0,0,0,0,0,0,0,0,0,0,0,25,0,0,0,0,0,0,0,0,0,0,0,0,0,0,0,0,0,0|
0,0,0,0,0,0,0,0,0,0,0,0,0,0,0,0,0,0,20,0,0,0,0,0,0,0,0,0,0,0,0,0,0,0,0,0,0,0,0,0,0,0,0,0,0,0,0,0,0,0,0,0,0,0,0,0,0,0,0,0,0,0,0,0,0,0,0,0,0,0,0,0,0,0,0,0,0,0,0,0,0|
0,0,0,67,0,0,0,0,0,0,0,0,0,66,0,0,0,0,0,0,0,0,0,0,0,0,0,0,0,61,0,0,0,0,0,41,0,0,0,0,0,7,0,0,0,0,0,0,0,0,0,0,0,0,0,0,0,0,0,0,0,0,0,0,0,0,0,0,0,0,0,14,0,0,0,60,0,0,0,0,0|
0,0,0,0,0,0,0,0,0,0,0,0,0,62,0,0,0,32,0,0,0,0,43,0,0,69,74,0,0,0,0,0,0,0,22,0,0,0,0,0,0,0,0,0,0,0,0,0,0,0,49,0,0,3,0,0,67,0,0,27,0,0,0,0,0,0,0,0,0,0,0,35,0,0,0,0,0,0,0,0,0|
0,0,0,0,0,0,0,0,0,0,0,0,38,0,0,0,4,0,0,0,0,0,0,70,0,0,0,0,0,0,0,0,0,0,0,0,0,0,2,0,0,0,5,0,0,0,0,0,0,0,0,0,0,0,41,0,0,0,0,0,0,0,0,0,0,0,21,68,9,37,0,0,23,0,0,0,0,54,0,0,0|
0,0,0,23,0,0,0,0,79,0,0,0,0,28,0,0,0,0,0,0,0,0,0,0,0,0,0,0,0,15,40,0,0,0,0,0,0,0,0,0,0,0,32,0,0,0,0,0,0,0,0,0,0,0,0,0,0,0,0,0,0,0,0,81,0,0,0,0,0,0,0,76,0,0,0,0,0,0,0,0,0|
0,0,0,0,0,0,0,6,0,0,0,0,0,0,0,0,0,0,0,0,0,0,0,41,0,0,0,73,0,0,0,64,0,0,0,0,0,0,0,0,0,0,0,0,0,61,0,0,0,0,0,0,0,0,0,0,0,0,0,0,0,0,0,0,40,0,39,0,0,0,0,0,78,0,0,0,0,0,0,0,0|
0,80,0,0,0,0,0,0,0,0,0,0,0,0,0,0,0,0,0,0,0,0,0,0,0,0,0,48,0,0,0,0,0,0,76,0,0,0,0,0,0,4,0,0,0,0,0,0,0,0,0,0,0,0,0,0,0,0,0,0,0,0,0,0,0,0,0,0,0,0,0,0,0,0,0,0,0,0,0,0,0|
0,0,0,0,0,18,0,0,0,49,0,0,0,0,0,0,0,0,0,0,0,0,0,0,62,0,0,0,0,0,0,0,0,0,0,0,0,0,72,0,0,0,25,0,10,0,0,0,0,0,0,0,0,0,0,0,0,0,0,0,0,0,0,0,0,0,0,0,0,0,0,0,0,0,0,0,0,0,0,0,0|
0,0,0,41,0,0,0,0,0,0,0,50,0,14,0,0,0,0,0,0,0,0,0,0,0,0,58,7,0,0,0,0,0,0,0,0,0,0,0,0,0,0,0,0,0,0,0,0,0,0,0,69,0,0,0,0,0,0,0,36,63,0,0,0,0,0,0,0,62,0,0,0,59,0,0,0,44,0,0,0,80|
0,0,0,0,70,0,0,0,0,0,0,0,0,0,0,0,0,0,0,0,0,0,0,0,79,0,0,0,0,77,0,0,0,26,25,0,0,0,0,9,0,0,0,0,0,0,0,0,0,0,0,0,0,0,0,0,0,73,0,0,0,0,0,0,0,0,18,0,0,0,0,0,0,0,0,0,0,0,0,75,0|
0,0,0,0,0,0,0,0,0,0,0,0,0,0,0,0,16,0,0,0,0,0,9,0,0,0,0,0,0,0,0,0,0,0,0,0,0,0,0,56,0,0,0,0,0,0,0,0,0,0,0,0,0,0,0,0,0,0,0,0,0,0,0,0,0,0,0,0,0,0,11,42,0,0,76,0,0,0,0,0,0|
0,12,0,16,45,0,0,0,0,0,28,0,0,23,0,0,0,0,0,0,0,0,0,0,0,0,0,0,0,0,0,0,0,0,0,0,0,0,0,0,0,0,0,0,0,0,0,0,0,0,0,0,0,0,0,14,0,0,0,0,0,0,0,78,0,0,0,0,0,0,0,0,0,0,0,0,0,0,7,0,81|
0,0,0,0,0,0,0,0,0,0,0,0,70,0,0,0,0,0,0,0,0,0,0,43,12,0,0,0,0,0,0,45,0,0,0,0,0,0,0,0,0,36,0,0,0,0,0,0,0,0,0,0,69,0,0,0,0,0,0,0,0,0,0,0,0,0,0,0,0,0,0,0,0,0,0,24,0,0,0,0,0|
0,0,0,0,0,0,0,0,0,0,0,0,0,0,0,0,73,0,0,0,0,0,0,0,0,0,0,0,0,0,0,48,0,79,0,0,0,0,0,0,0,0,0,0,0,0,0,0,0,0,0,0,0,0,0,12,0,0,0,0,0,27,0,0,1,0,0,0,0,0,0,0,0,0,0,0,0,0,43,40,0|
0,0,0,0,0,0,61,0,0,0,0,0,0,0,0,0,40,0,71,0,0,0,0,0,0,58,0,0,0,0,0,6,0,0,0,0,8,0,0,0,33,0,0,0,0,0,0,0,0,0,0,0,0,0,0,0,0,0,0,0,48,0,0,0,66,0,0,0,0,0,0,0,0,0,0,0,0,0,0,0,56|
0,0,0,0,0,0,0,0,0,0,0,0,20,0,0,81,0,0,0,0,0,0,0,0,0,0,0,71,0,0,0,0,0,0,0,0,0,0,0,0,0,0,0,0,0,16,0,0,0,0,63,43,2,0,0,0,0,56,0,0,0,0,64,0,0,0,0,0,0,0,0,0,6,0,0,0,0,0,57,0,0|
0,0,0,0,0,0,0,81,27,0,0,0,0,0,0,0,0,0,0,0,0,0,0,0,0,28,33,0,24,0,0,0,0,0,0,0,0,0,0,0,0,0,0,79,0,0,0,34,60,0,0,0,0,0,0,0,0,0,0,0,0,0,0,0,0,0,0,0,0,0,0,22,0,0,0,0,0,0,0,0,0|
0,0,0,0,0,0,0,0,0,38,0,0,0,0,0,0,62,0,0,0,0,0,0,0,0,0,41,0,0,0,0,0,0,0,0,0,77,0,0,66,0,0,0,0,0,0,0,0,6,0,21,15,0,0,0,0,0,0,0,0,0,0,0,0,0,60,0,0,53,0,0,12,0,0,0,0,0,71,0,31,0|
0,1,0,0,0,0,0,47,0,0,0,0,0,74,0,0,0,0,0,54,0,0,2,0,0,0,0,0,0,0,0,0,64,0,0,0,0,0,0,48,0,0,0,0,0,0,49,0,0,0,0,0,27,0,0,0,0,0,0,0,0,76,0,0,0,0,65,0,17,0,0,0,0,0,0,0,0,0,0,0,0|
0,0,0,0,0,0,0,0,0,0,0,0,0,0,0,0,6,0,0,0,0,0,0,0,0,0,73,0,0,0,0,23,0,0,7,0,0,0,0,0,0,0,0,71,0,0,0,0,0,0,0,0,0,0,0,0,0,0,8,0,0,0,74,0,0,40,0,36,0,70,0,0,0,0,0,0,0,0,0,0,0|
0,28,0,0,0,0,0,0,0,0,0,0,0,0,0,0,0,0,0,0,0,0,0,0,0,55,0,0,0,0,0,0,0,0,0,0,0,0,0,0,0,0,48,0,0,0,0,0,0,0,0,0,0,0,50,0,0,0,0,0,0,0,0,0,0,0,0,0,0,0,0,0,0,0,0,0,0,0,0,0,0|
39,0,0,0,0,0,0,0,0,0,0,0,0,0,0,0,0,0,0,0,0,0,0,0,0,0,0,0,0,0,0,0,0,0,0,0,71,0,8,0,76,0,0,0,35,0,0,0,0,0,33,0,0,0,9,0,0,0,0,0,72,0,0,0,0,0,38,0,0,0,57,0,0,0,0,0,0,0,0,36,0|
0,0,0,0,0,0,0,0,0,40,0,0,0,0,0,0,0,0,0,50,0,0,0,0,0,0,0,0,0,0,0,0,0,0,35,0,0,0,0,0,17,0,63,0,0,0,0,0,0,0,0,0,0,0,0,0,0,0,0,0,0,0,0,0,0,0,0,0,0,0,0,0,0,0,0,0,0,0,11,0,22|
0,0,0,0,72,0,0,0,0,0,0,0,0,0,69,0,0,0,0,0,0,0,0,0,0,0,0,0,0,0,0,0,0,0,0,0,0,0,0,0,0,39,0,0,0,0,0,0,0,0,0,0,0,0,0,0,0,0,0,0,0,0,0,0,0,0,0,52,0,40,0,0,10,0,0,29,0,0,0,0,0|
33,0,0,0,68,0,55,0,0,0,0,0,12,0,0,0,0,0,0,0,0,0,0,71,0,0,43,0,0,0,0,0,0,60,0,0,0,0,0,0,0,0,0,0,0,0,0,0,67,0,0,5,0,0,0,0,75,0,20,0,0,81,0,0,76,21,0,35,0,78,0,0,0,0,0,0,46,0,0,23,0|
0,0,0,0,0,0,0,0,0,0,0,0,0,0,0,0,0,0,0,0,0,0,30,0,0,0,60,40,27,0,0,0,0,0,0,0,0,0,0,0,75,0,0,0,0,0,0,0,0,71,0,0,0,0,0,0,0,0,0,69,0,0,0,0,0,0,0,0,63,0,0,29,0,0,0,0,0,0,1,0,0|
0,63,0,0,0,0,0,76,11,0,0,0,0,0,0,0,0,0,0,23,0,0,0,0,0,0,29,9,0,0,59,0,0,0,0,0,0,0,0,0,0,0,0,77,0,0,0,0,0,0,0,0,0,0,0,0,0,0,2,0,0,43,0,0,0,0,0,0,0,61,0,0,0,0,0,0,0,0,0,0,44|
0,0,0,0,0,0,0,0,0,0,0,0,0,0,0,0,0,0,3,0,0,0,0,0,0,0,0,0,0,0,0,0,0,0,0,0,42,0,0,0,0,0,0,0,0,0,0,0,0,0,0,0,0,14,0,0,0,60,0,0,0,0,15,0,0,0,0,44,20,0,0,0,0,0,0,0,0,0,0,0,0|
0,0,0,0,0,0,0,0,0,0,0,0,0,0,0,0,0,0,0,0,0,0,0,0,0,41,0,13,0,0,0,0,0,20,0,0,0,0,0,0,0,0,0,0,0,0,0,0,0,0,50,0,0,0,0,0,0,0,0,0,0,0,0,0,0,0,0,0,0,0,0,0,0,0,0,0,0,0,0,64,0|
0,0,72,0,0,0,0,0,0,0,0,0,0,0,0,0,0,0,0,0,36,0,0,0,0,0,0,0,58,0,0,0,0,0,51,0,0,0,0,0,0,0,0,0,0,0,13,0,77,0,0,0,0,0,0,0,0,29,0,0,0,0,1,0,0,74,0,53,0,0,3,73,0,0,0,0,0,0,0,44,0|
0,0,0,0,0,0,77,0,0,0,0,0,0,0,0,0,0,0,0,38,0,0,0,0,0,0,0,0,0,0,0,0,0,0,6,0,0,33,0,0,0,0,0,0,0,0,0,0,0,0,0,0,52,0,0,0,68,0,0,0,0,0,0,0,12,0,0,0,0,0,0,0,0,0,0,0,0,0,0,0,64|
0,0,45,0,61,0,0,0,0,0,32,0,0,0,0,0,0,0,0,0,0,0,0,0,0,0,0,0,0,29,0,55,0,0,0,0,0,0,0,0,0,0,0,0,0,0,0,0,9,0,0,0,0,0,0,0,0,0,0,0,0,0,0,0,0,0,0,49,0,0,0,7,72,18,0,0,0,0,0,0,0|
49,75,0,0,0,0,0,24,0,0,0,0,0,0,0,0,0,0,0,0,0,0,0,0,0,0,0,81,0,0,0,0,0,0,0,72,0,0,34,0,0,0,0,0,0,0,0,11,0,0,0,0,0,0,0,0,51,0,0,0,0,0,0,0,0,0,0,0,61,0,58,0,0,0,0,0,0,0,0,0,71|
0,0,0,0,0,51,0,5,12,0,0,0,0,0,0,0,0,0,0,14,0,0,0,0,0,0,0,0,0,0,0,0,0,0,0,0,0,0,0,0,0,0,0,0,0,0,0,0,0,0,0,0,0,0,0,0,0,0,0,0,79,0,0,0,0,0,0,0,0,0,0,0,0,0,36,0,0,0,0,0,0|
0,0,25,0,0,0,0,0,0,0,0,0,0,0,0,0,0,0,0,0,0,0,0,9,0,0,0,0,0,0,0,0,0,0,0,0,0,0,0,0,0,0,0,0,0,0,0,0,0,0,0,0,0,0,0,0,13,0,0,0,0,0,0,0,0,22,0,0,0,0,0,21,0,0,0,5,0,0,0,0,0|
0,0,32,0,0,0,0,0,0,0,65,0,0,0,0,0,0,0,0,0,0,0,0,0,0,0,0,0,0,0,0,0,0,0,0,0,0,0,0,0,0,0,0,0,0,0,0,0,0,0,25,0,0,0,0,0,0,0,77,0,0,0,0,40,0,0,0,0,0,0,0,0,0,0,0,0,0,0,0,0,0|
0,0,64,0,0,0,0,0,74,11,17,34,0,0,0,0,13,0,0,0,0,0,0,0,0,0,0,0,0,0,0,56,0,22,0,0,0,0,0,0,0,0,36,0,0,0,0,0,0,0,48,0,0,10,0,0,0,0,0,0,0,0,0,0,0,0,0,0,0,0,0,0,0,0,0,0,0,0,0,0,0|
0,0,0,0,0,0,0,10,0,0,0,0,0,0,77,0,0,0,0,0,0,0,0,0,0,0,0,0,0,0,0,0,0,0,32,76,0,0,0,0,0,0,0,0,0,0,0,0,0,0,0,0,0,0,0,0,7,0,0,0,0,0,0,0,0,0,0,0,0,0,0,0,0,0,0,0,70,28,0,0,0|];